c n orig vars 100
p cnf 102 312
1 2 -101 0
3 4 -101 0
5 6 -101 0
7 8 -101 0
9 10 -101 0
11 12 -101 0
13 14 -101 0
15 16 -101 0
17 18 -101 0
19 20 -101 0
21 22 -101 0
23 24 -101 0
25 26 -101 0
27 28 -101 0
29 38 47 56 65 74 83 92 -102 0
30 39 48 57 66 75 84 93 -102 0
31 40 49 58 67 76 85 94 -102 0
32 41 50 59 68 77 86 95 -102 0
33 42 51 60 69 78 87 96 -102 0
34 43 52 61 70 79 88 97 -102 0
35 44 53 62 71 80 89 98 -102 0
36 45 54 63 72 81 90 99 -102 0
37 46 55 64 73 82 91 100 -102 0
-29 -30 -102 0
-29 -31 -102 0
-29 -32 -102 0
-29 -33 -102 0
-29 -34 -102 0
-29 -35 -102 0
-29 -36 -102 0
-29 -37 -102 0
-30 -31 -102 0
-30 -32 -102 0
-30 -33 -102 0
-30 -34 -102 0
-30 -35 -102 0
-30 -36 -102 0
-30 -37 -102 0
-31 -32 -102 0
-31 -33 -102 0
-31 -34 -102 0
-31 -35 -102 0
-31 -36 -102 0
-31 -37 -102 0
-32 -33 -102 0
-32 -34 -102 0
-32 -35 -102 0
-32 -36 -102 0
-32 -37 -102 0
-33 -34 -102 0
-33 -35 -102 0
-33 -36 -102 0
-33 -37 -102 0
-34 -35 -102 0
-34 -36 -102 0
-34 -37 -102 0
-35 -36 -102 0
-35 -37 -102 0
-36 -37 -102 0
-38 -39 -102 0
-38 -40 -102 0
-38 -41 -102 0
-38 -42 -102 0
-38 -43 -102 0
-38 -44 -102 0
-38 -45 -102 0
-38 -46 -102 0
-39 -40 -102 0
-39 -41 -102 0
-39 -42 -102 0
-39 -43 -102 0
-39 -44 -102 0
-39 -45 -102 0
-39 -46 -102 0
-40 -41 -102 0
-40 -42 -102 0
-40 -43 -102 0
-40 -44 -102 0
-40 -45 -102 0
-40 -46 -102 0
-41 -42 -102 0
-41 -43 -102 0
-41 -44 -102 0
-41 -45 -102 0
-41 -46 -102 0
-42 -43 -102 0
-42 -44 -102 0
-42 -45 -102 0
-42 -46 -102 0
-43 -44 -102 0
-43 -45 -102 0
-43 -46 -102 0
-44 -45 -102 0
-44 -46 -102 0
-45 -46 -102 0
-47 -48 -102 0
-47 -49 -102 0
-47 -50 -102 0
-47 -51 -102 0
-47 -52 -102 0
-47 -53 -102 0
-47 -54 -102 0
-47 -55 -102 0
-48 -49 -102 0
-48 -50 -102 0
-48 -51 -102 0
-48 -52 -102 0
-48 -53 -102 0
-48 -54 -102 0
-48 -55 -102 0
-49 -50 -102 0
-49 -51 -102 0
-49 -52 -102 0
-49 -53 -102 0
-49 -54 -102 0
-49 -55 -102 0
-50 -51 -102 0
-50 -52 -102 0
-50 -53 -102 0
-50 -54 -102 0
-50 -55 -102 0
-51 -52 -102 0
-51 -53 -102 0
-51 -54 -102 0
-51 -55 -102 0
-52 -53 -102 0
-52 -54 -102 0
-52 -55 -102 0
-53 -54 -102 0
-53 -55 -102 0
-54 -55 -102 0
-56 -57 -102 0
-56 -58 -102 0
-56 -59 -102 0
-56 -60 -102 0
-56 -61 -102 0
-56 -62 -102 0
-56 -63 -102 0
-56 -64 -102 0
-57 -58 -102 0
-57 -59 -102 0
-57 -60 -102 0
-57 -61 -102 0
-57 -62 -102 0
-57 -63 -102 0
-57 -64 -102 0
-58 -59 -102 0
-58 -60 -102 0
-58 -61 -102 0
-58 -62 -102 0
-58 -63 -102 0
-58 -64 -102 0
-59 -60 -102 0
-59 -61 -102 0
-59 -62 -102 0
-59 -63 -102 0
-59 -64 -102 0
-60 -61 -102 0
-60 -62 -102 0
-60 -63 -102 0
-60 -64 -102 0
-61 -62 -102 0
-61 -63 -102 0
-61 -64 -102 0
-62 -63 -102 0
-62 -64 -102 0
-63 -64 -102 0
-65 -66 -102 0
-65 -67 -102 0
-65 -68 -102 0
-65 -69 -102 0
-65 -70 -102 0
-65 -71 -102 0
-65 -72 -102 0
-65 -73 -102 0
-66 -67 -102 0
-66 -68 -102 0
-66 -69 -102 0
-66 -70 -102 0
-66 -71 -102 0
-66 -72 -102 0
-66 -73 -102 0
-67 -68 -102 0
-67 -69 -102 0
-67 -70 -102 0
-67 -71 -102 0
-67 -72 -102 0
-67 -73 -102 0
-68 -69 -102 0
-68 -70 -102 0
-68 -71 -102 0
-68 -72 -102 0
-68 -73 -102 0
-69 -70 -102 0
-69 -71 -102 0
-69 -72 -102 0
-69 -73 -102 0
-70 -71 -102 0
-70 -72 -102 0
-70 -73 -102 0
-71 -72 -102 0
-71 -73 -102 0
-72 -73 -102 0
-74 -75 -102 0
-74 -76 -102 0
-74 -77 -102 0
-74 -78 -102 0
-74 -79 -102 0
-74 -80 -102 0
-74 -81 -102 0
-74 -82 -102 0
-75 -76 -102 0
-75 -77 -102 0
-75 -78 -102 0
-75 -79 -102 0
-75 -80 -102 0
-75 -81 -102 0
-75 -82 -102 0
-76 -77 -102 0
-76 -78 -102 0
-76 -79 -102 0
-76 -80 -102 0
-76 -81 -102 0
-76 -82 -102 0
-77 -78 -102 0
-77 -79 -102 0
-77 -80 -102 0
-77 -81 -102 0
-77 -82 -102 0
-78 -79 -102 0
-78 -80 -102 0
-78 -81 -102 0
-78 -82 -102 0
-79 -80 -102 0
-79 -81 -102 0
-79 -82 -102 0
-80 -81 -102 0
-80 -82 -102 0
-81 -82 -102 0
-83 -84 -102 0
-83 -85 -102 0
-83 -86 -102 0
-83 -87 -102 0
-83 -88 -102 0
-83 -89 -102 0
-83 -90 -102 0
-83 -91 -102 0
-84 -85 -102 0
-84 -86 -102 0
-84 -87 -102 0
-84 -88 -102 0
-84 -89 -102 0
-84 -90 -102 0
-84 -91 -102 0
-85 -86 -102 0
-85 -87 -102 0
-85 -88 -102 0
-85 -89 -102 0
-85 -90 -102 0
-85 -91 -102 0
-86 -87 -102 0
-86 -88 -102 0
-86 -89 -102 0
-86 -90 -102 0
-86 -91 -102 0
-87 -88 -102 0
-87 -89 -102 0
-87 -90 -102 0
-87 -91 -102 0
-88 -89 -102 0
-88 -90 -102 0
-88 -91 -102 0
-89 -90 -102 0
-89 -91 -102 0
-90 -91 -102 0
-92 -93 -102 0
-92 -94 -102 0
-92 -95 -102 0
-92 -96 -102 0
-92 -97 -102 0
-92 -98 -102 0
-92 -99 -102 0
-92 -100 -102 0
-93 -94 -102 0
-93 -95 -102 0
-93 -96 -102 0
-93 -97 -102 0
-93 -98 -102 0
-93 -99 -102 0
-93 -100 -102 0
-94 -95 -102 0
-94 -96 -102 0
-94 -97 -102 0
-94 -98 -102 0
-94 -99 -102 0
-94 -100 -102 0
-95 -96 -102 0
-95 -97 -102 0
-95 -98 -102 0
-95 -99 -102 0
-95 -100 -102 0
-96 -97 -102 0
-96 -98 -102 0
-96 -99 -102 0
-96 -100 -102 0
-97 -98 -102 0
-97 -99 -102 0
-97 -100 -102 0
-98 -99 -102 0
-98 -100 -102 0
-99 -100 -102 0
101 102 0
